unsat
(:added-eqs                   9635
 :arith-eq-adapter            73
 :arith-bound-propagations-lp 1399
 :arith-branch                6099
 :arith-conflicts             6238
 :arith-cube-calls            2853
 :arith-diseq                 5322
 :arith-fixed-eqs             3519
 :arith-gcd-calls             11505
 :arith-gcd-conflict          71
 :arith-gomory-cuts           8178
 :arith-hnf-calls             11
 :arith-lower                 391636
 :arith-make-feasible         57207
 :arith-max-columns           111
 :arith-max-rows              67
 :arith-nla-propagate-bounds  4
 :arith-offset-eqs            1535
 :arith-patches               11434
 :arith-patches-success       4
 :arith-upper                 391682
 :binary-propagations         583929
 :conflicts                   6283
 :decisions                   29775
 :del-clause                  14616
 :final-checks                11505
 :max-memory                  27.19
 :memory                      18.38
 :minimized-lits              910
 :mk-bool-var                 15748
 :mk-clause                   15096
 :mk-clause-binary            11133
 :num-allocs                  8352487924.00
 :num-checks                  1
 :propagations                754338
 :restarts                    47
 :rlimit-count                3817298
 :time                        6.22
 :total-time                  6.22)
